c Modular CNF with 3 modules
c Generated CNF instance
p cnf 30 480
6 3 9 0
6 3 -9 0
6 -3 9 0
-6 3 9 0
7 4 1 0
7 4 -1 0
7 -4 1 0
-7 4 1 0
6 5 7 0
6 5 -7 0
6 -5 7 0
-6 5 7 0
9 4 3 0
9 4 -3 0
9 -4 3 0
-9 4 3 0
8 7 1 0
8 7 -1 0
8 -7 1 0
-8 7 1 0
7 8 2 0
7 8 -2 0
7 -8 2 0
-7 8 2 0
8 4 7 0
8 4 -7 0
8 -4 7 0
-8 4 7 0
8 6 3 0
8 6 -3 0
8 -6 3 0
-8 6 3 0
4 7 3 0
4 7 -3 0
4 -7 3 0
-4 7 3 0
8 9 5 0
8 9 -5 0
8 -9 5 0
-8 9 5 0
4 2 3 0
4 2 -3 0
4 -2 3 0
-4 2 3 0
1 5 2 0
1 5 -2 0
1 -5 2 0
-1 5 2 0
9 1 4 0
9 1 -4 0
9 -1 4 0
-9 1 4 0
9 3 6 0
9 3 -6 0
9 -3 6 0
-9 3 6 0
4 10 1 0
4 10 -1 0
4 -10 1 0
-4 10 1 0
3 9 4 0
3 9 -4 0
3 -9 4 0
-3 9 4 0
9 10 6 0
9 10 -6 0
9 -10 6 0
-9 10 6 0
9 10 7 0
9 10 -7 0
9 -10 7 0
-9 10 7 0
2 6 3 0
2 6 -3 0
2 -6 3 0
-2 6 3 0
6 1 3 0
6 1 -3 0
6 -1 3 0
-6 1 3 0
1 4 9 0
1 4 -9 0
1 -4 9 0
-1 4 9 0
3 4 1 0
3 4 -1 0
3 -4 1 0
-3 4 1 0
2 1 5 0
2 1 -5 0
2 -1 5 0
-2 1 5 0
5 9 6 0
5 9 -6 0
5 -9 6 0
-5 9 6 0
10 1 7 0
10 1 -7 0
10 -1 7 0
-10 1 7 0
2 10 7 0
2 10 -7 0
2 -10 7 0
-2 10 7 0
5 6 7 0
5 6 -7 0
5 -6 7 0
-5 6 7 0
6 3 5 0
6 3 -5 0
6 -3 5 0
-6 3 5 0
8 3 5 0
8 3 -5 0
8 -3 5 0
-8 3 5 0
4 3 5 0
4 3 -5 0
4 -3 5 0
-4 3 5 0
8 4 7 0
8 4 -7 0
8 -4 7 0
-8 4 7 0
1 8 3 0
1 8 -3 0
1 -8 3 0
-1 8 3 0
3 6 9 0
3 6 -9 0
3 -6 9 0
-3 6 9 0
3 6 10 0
3 6 -10 0
3 -6 10 0
-3 6 10 0
8 3 9 0
8 3 -9 0
8 -3 9 0
-8 3 9 0
10 7 8 0
10 7 -8 0
10 -7 8 0
-10 7 8 0
8 5 6 0
8 5 -6 0
8 -5 6 0
-8 5 6 0
6 7 4 0
6 7 -4 0
6 -7 4 0
-6 7 4 0
6 1 9 0
6 1 -9 0
6 -1 9 0
-6 1 9 0
3 2 9 0
3 2 -9 0
3 -2 9 0
-3 2 9 0
19 15 16 0
19 15 -16 0
19 -15 16 0
-19 15 16 0
12 20 13 0
12 20 -13 0
12 -20 13 0
-12 20 13 0
20 15 19 0
20 15 -19 0
20 -15 19 0
-20 15 19 0
17 18 14 0
17 18 -14 0
17 -18 14 0
-17 18 14 0
19 20 15 0
19 20 -15 0
19 -20 15 0
-19 20 15 0
16 15 18 0
16 15 -18 0
16 -15 18 0
-16 15 18 0
13 11 15 0
13 11 -15 0
13 -11 15 0
-13 11 15 0
11 15 13 0
11 15 -13 0
11 -15 13 0
-11 15 13 0
18 11 19 0
18 11 -19 0
18 -11 19 0
-18 11 19 0
13 20 14 0
13 20 -14 0
13 -20 14 0
-13 20 14 0
11 15 18 0
11 15 -18 0
11 -15 18 0
-11 15 18 0
12 19 15 0
12 19 -15 0
12 -19 15 0
-12 19 15 0
11 20 19 0
11 20 -19 0
11 -20 19 0
-11 20 19 0
18 14 17 0
18 14 -17 0
18 -14 17 0
-18 14 17 0
16 13 11 0
16 13 -11 0
16 -13 11 0
-16 13 11 0
17 12 13 0
17 12 -13 0
17 -12 13 0
-17 12 13 0
11 19 16 0
11 19 -16 0
11 -19 16 0
-11 19 16 0
17 16 14 0
17 16 -14 0
17 -16 14 0
-17 16 14 0
11 15 14 0
11 15 -14 0
11 -15 14 0
-11 15 14 0
19 20 18 0
19 20 -18 0
19 -20 18 0
-19 20 18 0
20 14 15 0
20 14 -15 0
20 -14 15 0
-20 14 15 0
14 17 19 0
14 17 -19 0
14 -17 19 0
-14 17 19 0
11 18 13 0
11 18 -13 0
11 -18 13 0
-11 18 13 0
19 15 14 0
19 15 -14 0
19 -15 14 0
-19 15 14 0
14 11 18 0
14 11 -18 0
14 -11 18 0
-14 11 18 0
17 11 13 0
17 11 -13 0
17 -11 13 0
-17 11 13 0
14 19 15 0
14 19 -15 0
14 -19 15 0
-14 19 15 0
20 13 14 0
20 13 -14 0
20 -13 14 0
-20 13 14 0
20 15 11 0
20 15 -11 0
20 -15 11 0
-20 15 11 0
19 16 13 0
19 16 -13 0
19 -16 13 0
-19 16 13 0
14 17 19 0
14 17 -19 0
14 -17 19 0
-14 17 19 0
18 11 16 0
18 11 -16 0
18 -11 16 0
-18 11 16 0
17 12 15 0
17 12 -15 0
17 -12 15 0
-17 12 15 0
15 12 13 0
15 12 -13 0
15 -12 13 0
-15 12 13 0
19 16 11 0
19 16 -11 0
19 -16 11 0
-19 16 11 0
11 16 14 0
11 16 -14 0
11 -16 14 0
-11 16 14 0
11 13 18 0
11 13 -18 0
11 -13 18 0
-11 13 18 0
17 15 11 0
17 15 -11 0
17 -15 11 0
-17 15 11 0
17 15 12 0
17 15 -12 0
17 -15 12 0
-17 15 12 0
19 20 13 0
19 20 -13 0
19 -20 13 0
-19 20 13 0
22 23 27 0
22 23 -27 0
22 -23 27 0
-22 23 27 0
22 23 26 0
22 23 -26 0
22 -23 26 0
-22 23 26 0
24 23 21 0
24 23 -21 0
24 -23 21 0
-24 23 21 0
21 24 27 0
21 24 -27 0
21 -24 27 0
-21 24 27 0
28 26 25 0
28 26 -25 0
28 -26 25 0
-28 26 25 0
22 28 29 0
22 28 -29 0
22 -28 29 0
-22 28 29 0
25 24 28 0
25 24 -28 0
25 -24 28 0
-25 24 28 0
25 24 22 0
25 24 -22 0
25 -24 22 0
-25 24 22 0
25 21 23 0
25 21 -23 0
25 -21 23 0
-25 21 23 0
22 21 29 0
22 21 -29 0
22 -21 29 0
-22 21 29 0
29 22 25 0
29 22 -25 0
29 -22 25 0
-29 22 25 0
30 24 29 0
30 24 -29 0
30 -24 29 0
-30 24 29 0
21 22 23 0
21 22 -23 0
21 -22 23 0
-21 22 23 0
23 29 26 0
23 29 -26 0
23 -29 26 0
-23 29 26 0
28 25 24 0
28 25 -24 0
28 -25 24 0
-28 25 24 0
21 26 29 0
21 26 -29 0
21 -26 29 0
-21 26 29 0
26 27 23 0
26 27 -23 0
26 -27 23 0
-26 27 23 0
29 30 21 0
29 30 -21 0
29 -30 21 0
-29 30 21 0
30 21 23 0
30 21 -23 0
30 -21 23 0
-30 21 23 0
23 25 27 0
23 25 -27 0
23 -25 27 0
-23 25 27 0
22 24 26 0
22 24 -26 0
22 -24 26 0
-22 24 26 0
27 22 25 0
27 22 -25 0
27 -22 25 0
-27 22 25 0
24 25 27 0
24 25 -27 0
24 -25 27 0
-24 25 27 0
30 27 28 0
30 27 -28 0
30 -27 28 0
-30 27 28 0
28 22 26 0
28 22 -26 0
28 -22 26 0
-28 22 26 0
28 25 26 0
28 25 -26 0
28 -25 26 0
-28 25 26 0
24 27 22 0
24 27 -22 0
24 -27 22 0
-24 27 22 0
27 23 29 0
27 23 -29 0
27 -23 29 0
-27 23 29 0
24 29 27 0
24 29 -27 0
24 -29 27 0
-24 29 27 0
21 29 23 0
21 29 -23 0
21 -29 23 0
-21 29 23 0
22 23 24 0
22 23 -24 0
22 -23 24 0
-22 23 24 0
21 27 23 0
21 27 -23 0
21 -27 23 0
-21 27 23 0
26 28 23 0
26 28 -23 0
26 -28 23 0
-26 28 23 0
29 24 28 0
29 24 -28 0
29 -24 28 0
-29 24 28 0
25 21 30 0
25 21 -30 0
25 -21 30 0
-25 21 30 0
27 21 30 0
27 21 -30 0
27 -21 30 0
-27 21 30 0
22 28 27 0
22 28 -27 0
22 -28 27 0
-22 28 27 0
21 25 22 0
21 25 -22 0
21 -25 22 0
-21 25 22 0
24 28 25 0
24 28 -25 0
24 -28 25 0
-24 28 25 0
23 29 30 0
23 29 -30 0
23 -29 30 0
-23 29 30 0
